Geographic Exponential Decay
80 220 55 246 112 185 224 90 96 109 50 93 86 53 295 34 161 142 262 125 119 170 240 69 23 179 258 52 173 126 132 47 141 276 308 176 195 124 206 298 274 115 110 314 99 214 5 89 300 100 59 204 13 290 251 45 311 147 20 122 285 94 105 11 10 145 44 97 305 180 244 225 129 49 182 188 12 21 299 200 190
p edge 320 1294
e 0 311 85.0
e 1 217 4.0
e 1 311 80.0
e 2 96 74.0
e 2 83 1.0
e 2 75 22.0
e 2 125 26.0
e 2 303 2.0
e 3 35 14.0
e 3 8 6.0
e 3 45 95.0
e 3 14 18.0
e 3 195 78.0
e 4 140 1.0
e 5 99 87.0
e 5 163 94.0
e 5 111 28.0
e 5 50 6.0
e 5 295 96.0
e 5 224 30.0
e 5 88 66.0
e 5 216 20.0
e 5 26 48.0
e 5 312 69.0
e 5 242 29.0
e 5 113 81.0
e 5 112 60.0
e 5 280 73.0
e 5 98 17.0
e 5 100 99.0
e 5 9 31.0
e 6 98 1.0
e 7 166 3.0
e 8 135 1.0
e 8 291 9.0
e 10 211 97.0
e 10 279 50.0
e 10 5 68.0
e 10 96 63.0
e 10 144 62.0
e 10 277 92.0
e 10 73 66.0
e 10 15 58.0
e 10 220 93.0
e 10 256 83.0
e 10 90 18.0
e 10 202 7.0
e 10 245 78.0
e 10 195 68.0
e 10 257 80.0
e 10 81 82.0
e 10 135 21.0
e 11 312 39.0
e 11 309 10.0
e 11 78 48.0
e 11 84 34.0
e 11 72 47.0
e 11 234 1.0
e 11 297 6.0
e 11 231 98.0
e 11 139 54.0
e 11 184 79.0
e 11 186 26.0
e 11 259 56.0
e 11 145 19.0
e 11 107 53.0
e 11 27 100.0
e 11 298 66.0
e 11 56 36.0
e 12 174 80.0
e 12 131 36.0
e 12 116 86.0
e 12 263 13.0
e 12 284 95.0
e 12 108 81.0
e 12 44 80.0
e 12 203 33.0
e 12 13 29.0
e 12 163 36.0
e 12 102 34.0
e 12 79 94.0
e 12 121 52.0
e 12 80 34.0
e 12 171 49.0
e 12 120 56.0
e 12 265 26.0
e 13 60 28.0
e 13 231 60.0
e 13 196 72.0
e 13 11 14.0
e 13 270 62.0
e 13 131 99.0
e 13 266 93.0
e 13 33 67.0
e 13 162 37.0
e 13 285 68.0
e 13 240 91.0
e 13 56 98.0
e 13 89 80.0
e 13 288 46.0
e 13 275 89.0
e 13 61 76.0
e 16 176 1.0
e 17 18 8.0
e 17 254 2.0
e 17 317 8.0
e 17 276 48.0
e 17 119 29.0
e 19 205 8.0
e 20 193 88.0
e 20 156 14.0
e 20 180 26.0
e 20 234 44.0
e 20 288 61.0
e 20 105 75.0
e 20 214 34.0
e 20 154 81.0
e 20 16 86.0
e 20 17 80.0
e 20 303 93.0
e 20 26 93.0
e 20 110 37.0
e 20 145 69.0
e 20 216 63.0
e 20 251 3.0
e 20 12 21.0
e 21 90 48.0
e 21 163 15.0
e 21 291 89.0
e 21 205 27.0
e 21 99 11.0
e 21 268 96.0
e 21 209 79.0
e 21 32 55.0
e 21 245 94.0
e 21 11 15.0
e 21 134 7.0
e 21 140 7.0
e 21 55 43.0
e 21 216 95.0
e 21 79 31.0
e 21 80 35.0
e 21 49 3.0
e 22 277 15.0
e 22 307 1.0
e 23 98 26.0
e 23 199 53.0
e 23 96 81.0
e 23 29 91.0
e 23 40 33.0
e 23 100 71.0
e 23 257 15.0
e 23 141 87.0
e 23 287 37.0
e 23 313 33.0
e 23 130 3.0
e 23 253 31.0
e 23 187 21.0
e 23 164 45.0
e 23 243 27.0
e 23 316 15.0
e 23 46 60.0
e 24 271 4.0
e 24 86 71.0
e 25 257 2.0
e 25 275 3.0
e 27 109 86.0
e 27 210 22.0
e 27 166 22.0
e 27 131 6.0
e 28 71 2.0
e 29 125 6.0
e 29 299 26.0
e 29 317 6.0
e 29 54 14.0
e 30 58 16.0
e 31 276 95.0
e 33 3 9.0
e 33 307 6.0
e 34 302 95.0
e 34 116 6.0
e 34 184 32.0
e 34 74 23.0
e 34 307 88.0
e 34 91 2.0
e 34 137 74.0
e 34 276 48.0
e 34 266 64.0
e 34 280 76.0
e 34 182 93.0
e 34 118 1.0
e 34 209 65.0
e 34 311 56.0
e 34 271 79.0
e 34 314 89.0
e 34 185 69.0
e 35 66 2.0
e 36 1 5.0
e 36 44 15.0
e 37 247 10.0
e 37 108 2.0
e 38 221 5.0
e 38 269 21.0
e 38 41 8.0
e 38 155 22.0
e 38 297 2.0
e 39 80 1.0
e 39 173 74.0
e 40 210 9.0
e 40 25 6.0
e 40 21 94.0
e 40 149 15.0
e 42 55 66.0
e 43 223 4.0
e 43 305 48.0
e 44 203 95.0
e 44 25 94.0
e 44 127 55.0
e 44 263 69.0
e 44 8 88.0
e 44 47 59.0
e 44 27 74.0
e 44 26 38.0
e 44 113 27.0
e 44 105 75.0
e 44 274 93.0
e 44 270 1.0
e 44 302 13.0
e 44 46 87.0
e 44 10 68.0
e 45 283 59.0
e 45 159 32.0
e 45 212 82.0
e 45 132 44.0
e 45 258 91.0
e 45 180 89.0
e 45 213 28.0
e 45 78 92.0
e 45 227 84.0
e 45 239 36.0
e 45 252 17.0
e 45 231 66.0
e 45 145 12.0
e 45 86 54.0
e 45 46 100.0
e 45 233 98.0
e 47 10 95.0
e 47 15 16.0
e 47 254 92.0
e 47 170 70.0
e 47 13 32.0
e 47 201 4.0
e 47 148 94.0
e 47 274 89.0
e 47 244 87.0
e 47 52 40.0
e 47 157 41.0
e 47 14 34.0
e 47 88 19.0
e 47 245 89.0
e 47 217 60.0
e 47 311 7.0
e 48 142 66.0
e 48 0 4.0
e 49 255 33.0
e 49 108 14.0
e 49 114 79.0
e 49 124 29.0
e 49 97 22.0
e 49 42 64.0
e 49 292 77.0
e 49 69 55.0
e 49 261 79.0
e 49 228 26.0
e 49 94 96.0
e 49 72 82.0
e 49 249 86.0
e 49 158 34.0
e 49 194 62.0
e 49 252 29.0
e 50 305 45.0
e 50 58 79.0
e 50 143 16.0
e 50 205 66.0
e 50 227 40.0
e 50 16 40.0
e 50 75 24.0
e 50 200 100.0
e 50 188 68.0
e 50 89 73.0
e 50 202 51.0
e 50 18 85.0
e 50 14 78.0
e 50 145 34.0
e 50 106 42.0
e 50 122 91.0
e 51 20 4.0
e 51 87 4.0
e 52 197 2.0
e 52 164 3.0
e 52 81 75.0
e 52 147 55.0
e 52 14 84.0
e 52 209 93.0
e 52 124 4.0
e 52 248 29.0
e 52 201 53.0
e 52 264 51.0
e 52 194 22.0
e 52 144 87.0
e 52 126 6.0
e 52 271 56.0
e 52 269 15.0
e 52 114 33.0
e 53 168 96.0
e 53 218 76.0
e 53 259 100.0
e 53 111 70.0
e 53 269 43.0
e 53 106 76.0
e 53 140 12.0
e 53 214 30.0
e 53 177 76.0
e 53 212 27.0
e 53 298 65.0
e 53 301 6.0
e 53 296 10.0
e 53 62 27.0
e 53 61 99.0
e 53 7 47.0
e 53 72 13.0
e 54 228 23.0
e 54 296 6.0
e 54 206 25.0
e 54 318 22.0
e 55 304 55.0
e 55 129 45.0
e 55 295 56.0
e 55 156 69.0
e 55 148 55.0
e 55 26 23.0
e 55 165 87.0
e 55 290 76.0
e 55 86 53.0
e 55 123 63.0
e 55 308 89.0
e 55 19 32.0
e 55 309 93.0
e 55 8 21.0
e 55 89 32.0
e 57 105 57.0
e 58 183 16.0
e 58 16 15.0
e 58 179 97.0
e 59 76 67.0
e 59 55 45.0
e 59 172 80.0
e 59 272 100.0
e 59 192 89.0
e 59 144 100.0
e 59 293 2.0
e 59 153 71.0
e 59 145 18.0
e 59 188 86.0
e 59 31 31.0
e 59 295 64.0
e 59 229 32.0
e 59 65 67.0
e 59 310 6.0
e 59 140 99.0
e 59 135 57.0
e 61 177 9.0
e 63 268 4.0
e 63 209 11.0
e 63 77 8.0
e 64 138 1.0
e 65 109 21.0
e 67 309 7.0
e 68 161 95.0
e 69 56 98.0
e 69 5 5.0
e 69 234 33.0
e 69 88 32.0
e 69 308 3.0
e 69 44 21.0
e 69 162 72.0
e 69 112 8.0
e 69 83 10.0
e 69 145 62.0
e 69 168 57.0
e 69 161 72.0
e 69 73 39.0
e 69 19 6.0
e 69 72 46.0
e 69 51 86.0
e 70 186 9.0
e 71 120 1.0
e 71 62 5.0
e 74 84 1.0
e 76 88 1.0
e 77 89 27.0
e 82 142 88.0
e 85 304 1.0
e 86 237 39.0
e 86 238 12.0
e 86 85 22.0
e 86 224 91.0
e 86 313 10.0
e 86 128 21.0
e 86 36 80.0
e 86 109 18.0
e 86 317 42.0
e 86 261 3.0
e 86 230 60.0
e 86 3 27.0
e 86 308 5.0
e 86 139 37.0
e 89 15 45.0
e 89 238 29.0
e 89 120 52.0
e 89 307 78.0
e 89 114 30.0
e 89 188 71.0
e 89 43 77.0
e 89 179 82.0
e 89 86 30.0
e 89 227 66.0
e 89 107 79.0
e 89 56 42.0
e 89 177 9.0
e 90 302 14.0
e 90 268 41.0
e 90 256 39.0
e 90 262 84.0
e 90 9 2.0
e 90 22 12.0
e 90 176 71.0
e 90 310 98.0
e 90 107 83.0
e 90 23 54.0
e 90 181 49.0
e 90 193 61.0
e 90 89 79.0
e 90 56 51.0
e 90 91 65.0
e 92 229 8.0
e 92 126 29.0
e 92 227 11.0
e 93 112 30.0
e 93 10 28.0
e 93 279 70.0
e 93 308 58.0
e 93 184 81.0
e 93 150 77.0
e 93 9 80.0
e 93 318 12.0
e 93 200 33.0
e 93 220 22.0
e 93 301 95.0
e 93 38 38.0
e 93 214 54.0
e 93 44 95.0
e 93 82 72.0
e 93 210 17.0
e 93 172 94.0
e 94 212 90.0
e 94 243 48.0
e 94 138 78.0
e 94 23 51.0
e 94 271 99.0
e 94 222 72.0
e 94 61 12.0
e 94 177 83.0
e 94 1 92.0
e 94 155 81.0
e 94 312 92.0
e 94 19 16.0
e 94 269 37.0
e 94 20 51.0
e 94 217 47.0
e 94 41 75.0
e 95 61 4.0
e 95 308 10.0
e 96 184 99.0
e 96 87 5.0
e 96 178 32.0
e 96 156 36.0
e 96 133 92.0
e 96 154 96.0
e 96 1 52.0
e 96 250 1.0
e 96 70 82.0
e 96 114 96.0
e 96 77 73.0
e 96 55 91.0
e 96 302 45.0
e 96 280 97.0
e 97 144 8.0
e 97 293 81.0
e 97 242 24.0
e 97 310 98.0
e 97 141 10.0
e 97 133 6.0
e 97 3 93.0
e 97 224 10.0
e 97 126 48.0
e 97 11 18.0
e 97 150 30.0
e 97 237 7.0
e 97 9 97.0
e 97 70 77.0
e 97 229 32.0
e 97 98 12.0
e 99 284 52.0
e 99 272 82.0
e 99 183 72.0
e 99 87 1.0
e 99 303 63.0
e 99 150 80.0
e 99 295 56.0
e 99 304 31.0
e 99 153 23.0
e 99 301 22.0
e 99 252 13.0
e 99 61 48.0
e 99 42 75.0
e 99 305 58.0
e 99 103 25.0
e 100 36 58.0
e 100 34 87.0
e 100 291 54.0
e 100 45 87.0
e 100 4 65.0
e 100 179 28.0
e 100 132 32.0
e 100 157 6.0
e 100 92 21.0
e 100 242 18.0
e 100 220 33.0
e 100 173 4.0
e 100 77 61.0
e 100 93 72.0
e 100 172 45.0
e 101 84 1.0
e 104 2 1.0
e 105 235 40.0
e 105 111 5.0
e 105 241 25.0
e 105 195 84.0
e 105 146 61.0
e 105 50 63.0
e 105 92 100.0
e 105 187 12.0
e 105 270 3.0
e 105 300 57.0
e 105 89 66.0
e 105 308 50.0
e 105 45 14.0
e 105 283 80.0
e 109 180 53.0
e 109 210 73.0
e 109 131 82.0
e 109 178 52.0
e 109 73 31.0
e 109 311 58.0
e 109 39 39.0
e 109 179 31.0
e 109 222 94.0
e 109 110 62.0
e 109 108 58.0
e 109 276 49.0
e 109 127 21.0
e 109 78 79.0
e 110 218 96.0
e 110 210 86.0
e 110 52 49.0
e 110 196 95.0
e 110 29 41.0
e 110 273 86.0
e 110 151 55.0
e 110 160 49.0
e 110 161 69.0
e 110 8 5.0
e 110 33 26.0
e 110 101 6.0
e 110 293 13.0
e 110 265 29.0
e 110 214 22.0
e 112 219 47.0
e 112 229 37.0
e 112 119 22.0
e 112 283 40.0
e 112 71 20.0
e 112 86 29.0
e 112 31 63.0
e 112 135 28.0
e 112 230 68.0
e 112 57 30.0
e 112 309 6.0
e 112 247 19.0
e 112 278 6.0
e 112 153 53.0
e 113 208 12.0
e 115 259 26.0
e 115 309 51.0
e 115 126 47.0
e 115 238 16.0
e 115 141 86.0
e 115 157 35.0
e 115 250 46.0
e 115 160 29.0
e 115 38 20.0
e 115 267 48.0
e 115 216 8.0
e 115 94 69.0
e 115 59 19.0
e 115 112 60.0
e 115 104 66.0
e 115 292 2.0
e 115 109 23.0
e 116 261 11.0
e 117 65 5.0
e 117 242 1.0
e 118 229 5.0
e 119 2 64.0
e 119 25 89.0
e 119 179 17.0
e 119 66 90.0
e 119 51 35.0
e 119 89 44.0
e 119 35 32.0
e 119 229 6.0
e 119 181 95.0
e 119 270 86.0
e 119 214 42.0
e 119 62 72.0
e 119 101 73.0
e 119 255 25.0
e 119 0 11.0
e 121 2 10.0
e 121 49 24.0
e 121 4 16.0
e 121 300 67.0
e 122 124 58.0
e 122 272 20.0
e 122 276 7.0
e 122 248 23.0
e 122 198 93.0
e 122 274 52.0
e 122 38 79.0
e 122 183 69.0
e 122 208 60.0
e 122 51 92.0
e 122 255 34.0
e 122 180 95.0
e 122 210 32.0
e 122 59 86.0
e 122 185 30.0
e 122 24 40.0
e 124 107 100.0
e 124 146 47.0
e 124 120 96.0
e 124 54 32.0
e 124 106 94.0
e 124 195 97.0
e 124 243 29.0
e 124 196 43.0
e 124 227 13.0
e 124 114 80.0
e 124 4 42.0
e 124 70 97.0
e 124 279 65.0
e 124 166 23.0
e 125 44 97.0
e 125 185 94.0
e 125 273 29.0
e 125 179 13.0
e 125 73 24.0
e 125 84 55.0
e 125 191 29.0
e 125 303 4.0
e 125 268 41.0
e 125 208 25.0
e 125 64 82.0
e 125 202 90.0
e 125 199 58.0
e 125 297 20.0
e 125 306 22.0
e 126 136 59.0
e 126 246 89.0
e 126 281 78.0
e 126 149 16.0
e 126 255 35.0
e 126 33 29.0
e 126 294 57.0
e 126 73 84.0
e 126 191 72.0
e 126 178 11.0
e 126 6 84.0
e 126 195 68.0
e 126 147 81.0
e 129 20 10.0
e 129 313 70.0
e 129 24 68.0
e 129 268 40.0
e 129 116 4.0
e 129 272 21.0
e 129 33 63.0
e 129 125 75.0
e 129 220 30.0
e 129 96 87.0
e 129 168 87.0
e 129 35 17.0
e 129 250 24.0
e 129 111 47.0
e 129 54 4.0
e 129 117 3.0
e 130 218 1.0
e 132 196 91.0
e 132 46 52.0
e 132 227 8.0
e 132 223 35.0
e 132 295 50.0
e 132 312 73.0
e 132 107 74.0
e 132 159 40.0
e 132 272 45.0
e 132 115 85.0
e 132 304 44.0
e 132 250 63.0
e 132 318 52.0
e 132 178 69.0
e 132 151 82.0
e 134 74 5.0
e 141 74 76.0
e 141 142 31.0
e 141 257 64.0
e 141 181 38.0
e 141 90 100.0
e 141 137 87.0
e 141 273 51.0
e 141 79 57.0
e 141 263 24.0
e 141 0 7.0
e 141 182 58.0
e 141 232 67.0
e 141 110 4.0
e 141 95 17.0
e 142 204 3.0
e 142 59 23.0
e 142 201 85.0
e 142 163 4.0
e 142 263 3.0
e 142 309 34.0
e 142 273 65.0
e 142 196 85.0
e 142 240 42.0
e 142 153 55.0
e 142 143 4.0
e 142 5 53.0
e 142 13 14.0
e 142 120 40.0
e 145 74 9.0
e 145 52 49.0
e 145 92 71.0
e 145 6 66.0
e 145 246 43.0
e 145 314 28.0
e 145 93 21.0
e 145 27 18.0
e 145 265 54.0
e 145 133 63.0
e 145 259 38.0
e 147 180 83.0
e 147 62 69.0
e 147 109 45.0
e 147 49 94.0
e 147 173 11.0
e 147 12 55.0
e 147 298 79.0
e 147 67 43.0
e 147 143 1.0
e 147 27 48.0
e 147 254 9.0
e 147 266 71.0
e 147 21 30.0
e 147 75 92.0
e 147 76 65.0
e 152 6 1.0
e 152 263 2.0
e 158 136 3.0
e 161 71 46.0
e 161 60 69.0
e 161 112 2.0
e 161 87 2.0
e 161 179 53.0
e 161 91 82.0
e 161 305 54.0
e 161 75 100.0
e 161 172 86.0
e 161 195 92.0
e 161 90 88.0
e 161 253 97.0
e 161 265 51.0
e 161 39 99.0
e 165 90 99.0
e 167 133 4.0
e 167 315 6.0
e 169 117 3.0
e 169 77 2.0
e 170 13 94.0
e 170 239 93.0
e 170 30 76.0
e 170 174 71.0
e 170 317 42.0
e 170 211 99.0
e 170 290 21.0
e 170 152 68.0
e 170 164 24.0
e 170 151 47.0
e 170 300 63.0
e 170 273 74.0
e 170 247 44.0
e 170 240 45.0
e 170 12 48.0
e 170 154 29.0
e 173 233 50.0
e 173 63 94.0
e 173 313 57.0
e 173 116 21.0
e 173 279 86.0
e 173 112 66.0
e 173 248 91.0
e 173 137 94.0
e 173 304 35.0
e 173 314 91.0
e 173 253 8.0
e 173 194 3.0
e 173 42 54.0
e 173 161 90.0
e 174 214 27.0
e 174 83 5.0
e 174 180 97.0
e 175 164 4.0
e 176 130 61.0
e 176 154 11.0
e 176 305 91.0
e 176 15 73.0
e 176 134 43.0
e 176 199 9.0
e 176 170 31.0
e 176 39 19.0
e 176 76 15.0
e 176 273 5.0
e 176 233 9.0
e 176 132 50.0
e 176 236 24.0
e 176 148 97.0
e 176 146 29.0
e 179 188 28.0
e 179 274 87.0
e 179 285 69.0
e 179 284 11.0
e 179 171 50.0
e 179 63 10.0
e 179 224 3.0
e 179 191 57.0
e 179 132 36.0
e 179 197 45.0
e 180 244 11.0
e 180 23 78.0
e 180 117 37.0
e 180 305 71.0
e 180 52 54.0
e 180 66 67.0
e 180 64 34.0
e 180 120 94.0
e 180 251 81.0
e 180 53 17.0
e 180 228 64.0
e 182 147 100.0
e 182 53 43.0
e 182 45 90.0
e 182 21 69.0
e 182 17 90.0
e 182 132 14.0
e 182 294 29.0
e 182 308 86.0
e 182 104 31.0
e 182 155 43.0
e 182 305 12.0
e 182 7 7.0
e 182 306 36.0
e 182 252 20.0
e 182 81 82.0
e 185 180 58.0
e 185 28 37.0
e 185 238 13.0
e 185 148 34.0
e 185 246 54.0
e 185 85 96.0
e 185 187 100.0
e 185 91 54.0
e 185 237 100.0
e 185 76 68.0
e 185 287 22.0
e 185 7 27.0
e 185 164 14.0
e 185 221 1.0
e 186 314 15.0
e 188 171 15.0
e 188 78 66.0
e 188 180 3.0
e 188 68 10.0
e 188 211 54.0
e 188 224 71.0
e 188 249 54.0
e 188 17 25.0
e 188 137 9.0
e 188 128 93.0
e 188 118 94.0
e 188 160 95.0
e 188 252 41.0
e 189 151 1.0
e 190 150 24.0
e 190 287 78.0
e 190 109 66.0
e 190 280 97.0
e 190 18 11.0
e 190 47 64.0
e 190 286 2.0
e 190 305 99.0
e 190 274 73.0
e 190 82 78.0
e 190 64 65.0
e 190 29 8.0
e 190 275 41.0
e 190 79 56.0
e 190 249 71.0
e 190 214 37.0
e 190 22 3.0
e 195 155 36.0
e 195 93 58.0
e 195 187 68.0
e 195 284 32.0
e 195 183 66.0
e 195 34 75.0
e 195 156 74.0
e 195 274 72.0
e 195 194 85.0
e 195 18 32.0
e 195 240 89.0
e 198 94 61.0
e 198 308 70.0
e 200 281 4.0
e 200 22 71.0
e 200 232 74.0
e 200 119 76.0
e 200 139 29.0
e 200 167 99.0
e 200 305 100.0
e 200 223 58.0
e 200 192 34.0
e 200 35 20.0
e 200 207 22.0
e 200 121 46.0
e 200 264 19.0
e 200 211 95.0
e 200 69 87.0
e 204 310 49.0
e 204 238 16.0
e 204 115 53.0
e 204 24 48.0
e 204 219 57.0
e 204 281 92.0
e 204 256 72.0
e 204 300 26.0
e 204 159 35.0
e 204 28 12.0
e 204 202 45.0
e 204 165 55.0
e 204 193 29.0
e 204 29 87.0
e 204 218 100.0
e 204 188 91.0
e 206 316 3.0
e 206 239 35.0
e 206 301 35.0
e 206 129 78.0
e 206 252 76.0
e 206 28 12.0
e 206 30 6.0
e 206 185 66.0
e 206 113 84.0
e 206 190 2.0
e 206 308 23.0
e 206 83 31.0
e 206 226 36.0
e 206 212 69.0
e 206 281 90.0
e 206 256 48.0
e 212 211 20.0
e 212 85 44.0
e 212 294 40.0
e 212 32 15.0
e 212 145 82.0
e 214 31 26.0
e 214 186 70.0
e 214 121 98.0
e 214 274 26.0
e 214 80 1.0
e 214 30 6.0
e 214 256 100.0
e 214 236 58.0
e 214 266 11.0
e 214 275 78.0
e 215 32 2.0
e 215 267 4.0
e 220 32 49.0
e 220 53 81.0
e 220 68 37.0
e 220 94 48.0
e 220 258 81.0
e 220 285 18.0
e 220 34 51.0
e 220 274 52.0
e 220 243 44.0
e 220 193 28.0
e 220 95 37.0
e 220 86 65.0
e 220 166 3.0
e 221 95 10.0
e 224 81 65.0
e 224 71 87.0
e 224 191 20.0
e 224 318 53.0
e 224 173 88.0
e 224 60 83.0
e 224 63 41.0
e 224 36 67.0
e 224 126 78.0
e 224 47 94.0
e 224 128 34.0
e 224 82 50.0
e 225 37 20.0
e 225 244 89.0
e 225 222 89.0
e 225 262 94.0
e 225 40 2.0
e 225 305 47.0
e 225 282 38.0
e 225 41 22.0
e 225 161 52.0
e 225 185 94.0
e 225 315 97.0
e 225 162 77.0
e 225 138 21.0
e 225 130 83.0
e 225 81 71.0
e 225 197 1.0
e 225 248 13.0
e 230 256 9.0
e 239 37 16.0
e 239 217 24.0
e 240 123 6.0
e 240 314 70.0
e 240 198 17.0
e 240 40 77.0
e 240 160 61.0
e 240 201 19.0
e 240 141 71.0
e 240 149 28.0
e 240 67 48.0
e 240 185 89.0
e 240 37 99.0
e 240 96 100.0
e 240 241 44.0
e 244 96 16.0
e 244 315 22.0
e 244 97 83.0
e 244 314 53.0
e 244 195 8.0
e 244 260 65.0
e 244 141 41.0
e 244 40 17.0
e 244 41 68.0
e 244 274 9.0
e 244 202 79.0
e 244 125 31.0
e 244 149 24.0
e 244 276 17.0
e 246 43 25.0
e 246 265 94.0
e 246 176 60.0
e 246 258 22.0
e 246 158 31.0
e 246 67 83.0
e 246 190 70.0
e 246 311 48.0
e 246 146 89.0
e 246 125 2.0
e 246 165 97.0
e 246 149 99.0
e 246 47 61.0
e 246 240 48.0
e 247 97 35.0
e 247 57 40.0
e 247 43 46.0
e 247 48 46.0
e 247 105 8.0
e 247 294 4.0
e 251 110 58.0
e 251 186 57.0
e 251 258 1.0
e 251 314 7.0
e 251 192 60.0
e 251 130 58.0
e 251 121 32.0
e 251 165 61.0
e 251 277 53.0
e 251 124 25.0
e 251 241 81.0
e 251 65 81.0
e 251 285 85.0
e 251 319 79.0
e 251 152 74.0
e 258 97 82.0
e 258 124 62.0
e 258 282 78.0
e 258 239 67.0
e 258 161 97.0
e 258 134 94.0
e 258 99 57.0
e 258 48 78.0
e 258 212 89.0
e 258 244 45.0
e 258 249 68.0
e 258 139 67.0
e 258 203 78.0
e 262 48 83.0
e 262 246 20.0
e 262 99 87.0
e 262 235 40.0
e 262 186 11.0
e 262 282 56.0
e 262 49 80.0
e 262 268 61.0
e 262 60 14.0
e 262 50 60.0
e 262 54 70.0
e 262 100 84.0
e 262 55 18.0
e 262 305 30.0
e 262 57 13.0
e 274 291 52.0
e 274 134 22.0
e 274 58 6.0
e 274 219 65.0
e 274 50 73.0
e 274 228 57.0
e 274 65 71.0
e 274 66 62.0
e 276 254 88.0
e 276 58 85.0
e 276 68 67.0
e 276 305 87.0
e 276 316 12.0
e 276 152 50.0
e 276 294 9.0
e 276 285 98.0
e 276 178 10.0
e 276 188 16.0
e 276 69 58.0
e 277 276 68.0
e 277 246 82.0
e 277 99 22.0
e 277 157 1.0
e 277 191 11.0
e 277 147 9.0
e 278 58 12.0
e 278 115 31.0
e 285 287 11.0
e 285 142 57.0
e 285 294 78.0
e 285 171 92.0
e 285 286 15.0
e 285 100 67.0
e 285 319 21.0
e 285 101 28.0
e 285 69 21.0
e 285 129 28.0
e 285 102 95.0
e 285 314 48.0
e 289 205 2.0
e 290 110 51.0
e 290 219 62.0
e 290 319 45.0
e 290 113 7.0
e 290 100 40.0
e 290 102 100.0
e 290 245 51.0
e 290 103 42.0
e 290 104 2.0
e 290 162 86.0
e 290 127 86.0
e 290 136 52.0
e 290 239 23.0
e 290 264 85.0
e 290 145 81.0
e 295 244 19.0
e 295 113 34.0
e 295 282 16.0
e 295 116 21.0
e 295 258 100.0
e 295 102 20.0
e 295 118 49.0
e 295 105 90.0
e 295 212 50.0
e 295 213 7.0
e 295 158 18.0
e 295 103 51.0
e 298 118 84.0
e 298 237 73.0
e 298 103 69.0
e 298 105 9.0
e 298 106 64.0
e 298 142 46.0
e 298 199 43.0
e 298 119 81.0
e 298 122 19.0
e 298 274 9.0
e 298 123 45.0
e 298 124 29.0
e 298 126 62.0
e 298 178 23.0
e 299 298 42.0
e 299 283 35.0
e 299 231 84.0
e 299 119 83.0
e 299 166 54.0
e 299 286 38.0
e 299 233 61.0
e 299 308 91.0
e 299 167 25.0
e 299 181 46.0
e 299 122 77.0
e 299 168 37.0
e 299 123 4.0
e 299 126 47.0
e 299 127 45.0
e 299 128 8.0
e 300 206 87.0
e 300 122 34.0
e 300 305 44.0
e 300 129 94.0
e 300 136 97.0
e 300 138 62.0
e 300 139 20.0
e 300 237 31.0
e 300 141 49.0
e 300 142 23.0
e 300 289 27.0
e 300 198 81.0
e 300 236 89.0
e 305 306 91.0
e 305 295 18.0
e 305 288 24.0
e 305 143 80.0
e 308 288 66.0
e 308 145 66.0
e 308 146 70.0
e 308 158 4.0
e 308 224 99.0
e 308 298 45.0
e 308 147 96.0
e 311 159 76.0
e 311 166 55.0
e 311 167 34.0
e 311 314 43.0
e 311 169 9.0
e 311 212 20.0
e 311 170 54.0
e 311 205 90.0
e 311 173 17.0
e 311 285 26.0
e 311 174 52.0
e 314 192 7.0
e 314 169 34.0
e 314 170 99.0
e 314 174 64.0
e 314 175 7.0
e 314 179 3.0
e 314 295 29.0
e 314 176 4.0
